30
1 0 5
3 1 4
4 0 11
5 0 10
5 1 6
5 2 3
5 4 4
6 0 8
6 5 1
7 1 12
7 3 1
7 4 8
8 0 9
8 1 9
8 2 9
8 3 11
8 4 2
8 5 12
8 6 9
8 7 2
9 4 8
9 5 9
9 7 6
10 0 4
10 3 5
10 4 2
10 5 6
10 7 6
11 2 3
11 4 10
11 5 4
11 6 6
11 9 1
11 10 7
12 0 10
12 2 10
12 3 4
12 6 6
12 8 11
12 10 7
12 11 10
13 3 9
13 6 2
13 7 11
13 8 6
13 9 6
13 10 11
14 1 5
14 2 3
14 5 11
14 6 5
14 9 4
14 11 2
14 12 7
14 13 3
15 1 12
15 8 2
15 9 12
16 1 1
16 5 2
16 7 10
16 12 7
17 0 8
17 1 5
17 6 7
17 7 12
17 8 9
17 10 3
17 11 1
17 12 4
17 13 4
18 1 12
18 4 1
18 6 4
18 9 9
18 10 2
18 12 11
18 13 12
18 14 5
18 15 10
18 16 1
19 1 8
19 3 1
19 7 8
19 8 5
19 10 7
19 11 7
19 12 6
19 13 8
19 15 9
19 16 12
20 0 5
20 2 2
20 8 7
20 9 2
20 10 12
20 11 6
20 12 8
20 14 3
20 19 5
21 0 1
21 1 4
21 2 5
21 3 12
21 5 7
21 8 8
21 10 11
21 11 11
21 14 2
21 15 1
21 16 11
22 1 8
22 2 10
22 4 2
22 5 10
22 6 7
22 10 12
22 11 12
22 12 7
22 13 6
22 15 2
22 16 1
22 17 1
22 19 6
22 20 6
22 21 12
23 5 1
23 6 10
23 8 2
23 9 4
23 10 7
23 12 12
23 15 8
23 16 3
23 18 2
23 19 2
23 20 9
23 21 10
24 0 8
24 2 11
24 3 2
24 5 2
24 6 11
24 13 3
24 14 8
24 16 1
24 19 5
24 23 11
25 0 10
25 1 6
25 2 5
25 3 11
25 4 1
25 7 11
25 10 11
25 13 2
25 15 11
25 18 4
25 19 11
25 21 9
25 23 11
26 1 6
26 2 3
26 3 9
26 4 7
26 11 3
26 12 1
26 14 2
26 16 10
26 19 10
26 20 9
26 22 12
26 23 3
26 24 7
26 25 7
27 1 2
27 7 12
27 9 6
27 10 6
27 11 10
27 12 12
27 13 1
27 15 11
27 16 4
27 18 10
27 20 2
27 21 10
27 25 11
27 26 9
28 0 12
28 3 6
28 4 6
28 6 1
28 7 1
28 8 7
28 15 7
28 17 1
28 18 2
28 21 9
28 23 1
28 24 11
28 26 11
29 0 6
29 5 5
29 7 3
29 9 11
29 11 12
29 12 1
29 13 2
29 15 8
29 17 5
29 18 5
29 19 1
29 20 6
29 23 11
29 24 9
29 26 11
29 28 2
